\ Generated by MPModelProtoExporter
\   Name             : 
\   Format           : Free
\   Constraints      : 1
\   Variables        : 2
\     Binary         : 0
\     Integer        : 1
\     Continuous     : 1
Maximize
 Obj: +30 x +50 y 
Subject to
 auto_c_000000000: +2 x +3 y  <= 18
Bounds
 0 <= x
 0 <= y <= inf
Generals
 y
End
